(set-info :source |printed by MathSAT|)
(declare-fun dist () Int)
(declare-fun call_voiture.time () Int)
(declare-fun move () Bool)
(declare-fun call_voiture.toofast () Bool)
(declare-fun call_voiture.stop () Bool)
(declare-fun call_voiture.move () Bool)
(declare-fun call_voiture.flby6 () Int)
(declare-fun call_voiture.flby () Bool)
(declare-fun call_voiture.flby2 () Bool)
(declare-fun meter () Bool)
(declare-fun call_voiture.flby4 () Int)
(declare-fun param_s () Bool)
(declare-fun call_Sofar.flby () Bool)
(declare-fun stop () Bool)
(declare-fun call_voiture.dist () Int)
(declare-fun bump () Bool)
(declare-fun call_voiture.bump () Bool)
(declare-fun call_Sofar.Sofar () Bool)
(declare-fun speed () Int)
(declare-fun call_excludes2.excludes () Bool)
(declare-fun call_voiture.ite3 () Int)
(declare-fun _OK_ () Bool)
(declare-fun call_voiture.second () Bool)
(declare-fun second () Bool)
(declare-fun toofast () Bool)
(declare-fun call_voiture.ite2 () Int)
(declare-fun time () Int)
(declare-fun env () Bool)
(declare-fun call_voiture.flby3 () Bool)
(declare-fun call_voiture.meter () Bool)
(declare-fun call_voiture.flby5 () Int)
(declare-fun call_voiture.speed () Int)
(declare-fun param_m () Bool)
(define-fun .def_370 () Bool (= call_excludes2.excludes call_Sofar.flby))
(define-fun .def_368 () Bool (= call_voiture.flby6 0))
(define-fun .def_366 () Bool (= call_voiture.flby5 0))
(define-fun .def_364 () Bool (= call_voiture.flby4 0))
(define-fun .def_361 () Bool (not call_voiture.flby2))
(define-fun .def_360 () Bool (not call_voiture.flby))
(define-fun .def_362 () Bool (and .def_360 .def_361))
(define-fun .def_363 () Bool (and call_voiture.flby3 .def_362))
(define-fun .def_365 () Bool (and .def_363 .def_364))
(define-fun .def_367 () Bool (and .def_365 .def_366))
(define-fun .def_369 () Bool (and .def_367 .def_368))
(define-fun .def_371 () Bool (and .def_369 .def_370))
(define-fun .def_358 () Bool (= call_Sofar.Sofar call_Sofar.flby))
(define-fun .def_352 () Bool (and param_s param_m))
(define-fun .def_353 () Bool (not .def_352))
(define-fun .def_355 () Bool (= .def_353 call_excludes2.excludes))
(define-fun .def_348 () Bool (= call_voiture.meter call_voiture.flby))
(define-fun .def_345 () Bool (= call_voiture.second call_voiture.flby2))
(define-fun .def_341 () Bool (= call_voiture.move call_voiture.flby3))
(define-fun .def_337 () Bool (= call_voiture.ite3 0))
(define-fun .def_333 () Bool (not call_voiture.move))
(define-fun .def_334 () Bool (or call_voiture.second .def_333))
(define-fun .def_336 () Bool (not .def_334))
(define-fun .def_338 () Bool (or .def_336 .def_337))
(define-fun .def_332 () Bool (= call_voiture.ite2 call_voiture.ite3))
(define-fun .def_335 () Bool (or .def_332 .def_334))
(define-fun .def_339 () Bool (and .def_335 .def_338))
(define-fun .def_342 () Bool (and .def_339 .def_341))
(define-fun .def_328 () Bool (= call_voiture.time call_voiture.flby6))
(define-fun .def_325 () Bool (= call_voiture.speed call_voiture.flby5))
(define-fun .def_322 () Bool (= call_voiture.dist call_voiture.flby4))
(define-fun .def_318 () Bool (= call_voiture.dist 10))
(define-fun .def_319 () Bool (= call_voiture.bump .def_318))
(define-fun .def_315 () Bool (<= 4 call_voiture.time))
(define-fun .def_316 () Bool (= call_voiture.stop .def_315))
(define-fun .def_312 () Bool (<= 3 call_voiture.speed))
(define-fun .def_313 () Bool (= call_voiture.toofast .def_312))
(define-fun .def_310 () Bool (= env call_Sofar.Sofar))
(define-fun .def_307 () Bool (= meter call_voiture.meter))
(define-fun .def_303 () Bool (= second call_voiture.second))
(define-fun .def_299 () Bool (= move call_voiture.move))
(define-fun .def_295 () Bool (= time call_voiture.time))
(define-fun .def_291 () Bool (= speed call_voiture.speed))
(define-fun .def_288 () Bool (= dist call_voiture.dist))
(define-fun .def_284 () Bool (= bump call_voiture.bump))
(define-fun .def_280 () Bool (= stop call_voiture.stop))
(define-fun .def_276 () Bool (= toofast call_voiture.toofast))
(define-fun .def_271 () Bool (<= 0 speed))
(define-fun .def_269 () Bool (not env))
(define-fun .def_272 () Bool (or .def_269 .def_271))
(define-fun .def_273 () Bool (= _OK_ .def_272))
(define-fun .def_277 () Bool (and .def_273 .def_276))
(define-fun .def_281 () Bool (and .def_277 .def_280))
(define-fun .def_285 () Bool (and .def_281 .def_284))
(define-fun .def_289 () Bool (and .def_285 .def_288))
(define-fun .def_292 () Bool (and .def_289 .def_291))
(define-fun .def_296 () Bool (and .def_292 .def_295))
(define-fun .def_300 () Bool (and .def_296 .def_299))
(define-fun .def_304 () Bool (and .def_300 .def_303))
(define-fun .def_308 () Bool (and .def_304 .def_307))
(define-fun .def_311 () Bool (and .def_308 .def_310))
(define-fun .def_314 () Bool (and .def_311 .def_313))
(define-fun .def_317 () Bool (and .def_314 .def_316))
(define-fun .def_320 () Bool (and .def_317 .def_319))
(define-fun .def_323 () Bool (and .def_320 .def_322))
(define-fun .def_326 () Bool (and .def_323 .def_325))
(define-fun .def_329 () Bool (and .def_326 .def_328))
(define-fun .def_343 () Bool (and .def_329 .def_342))
(define-fun .def_346 () Bool (and .def_343 .def_345))
(define-fun .def_349 () Bool (and .def_346 .def_348))
(define-fun .def_356 () Bool (and .def_349 .def_355))
(define-fun .def_359 () Bool (and .def_356 .def_358))
(define-fun .def_372 () Bool (and .def_359 .def_371))
(assert .def_372)
